p cnf 212 1260
1 -96 0
1 -97 0
96 -96 0
97 -97 0
20 -102 0
20 -103 0
102 -102 0
103 -103 0
39 -108 0
39 -109 0
108 -108 0
109 -109 0
58 -114 0
58 -115 0
114 -114 0
115 -115 0
77 -120 0
77 -121 0
120 -120 0
121 -121 0
2 -96 0
2 -97 0
96 -96 0
97 -97 0
21 -102 0
21 -103 0
102 -102 0
103 -103 0
40 -108 0
40 -109 0
108 -108 0
109 -109 0
59 -114 0
59 -115 0
114 -114 0
115 -115 0
78 -120 0
78 -121 0
120 -120 0
121 -121 0
3 -126 -96 0
-3 126 -96 0
3 126 -97 0
-3 -126 -97 0
22 -126 -102 0
-22 126 -102 0
22 126 -103 0
-22 -126 -103 0
41 -126 -108 0
-41 126 -108 0
41 126 -109 0
-41 -126 -109 0
60 -126 -114 0
-60 126 -114 0
60 126 -115 0
-60 -126 -115 0
79 -126 -120 0
-79 126 -120 0
79 126 -121 0
-79 -126 -121 0
4 -96 0
4 -97 0
96 -96 0
97 -97 0
23 -102 0
23 -103 0
102 -102 0
103 -103 0
42 -108 0
42 -109 0
108 -108 0
109 -109 0
61 -114 0
61 -115 0
114 -114 0
115 -115 0
80 -120 0
80 -121 0
120 -120 0
121 -121 0
5 -96 0
5 -97 0
96 -96 0
97 -97 0
24 -102 0
24 -103 0
102 -102 0
103 -103 0
43 -108 0
43 -109 0
108 -108 0
109 -109 0
62 -114 0
62 -115 0
114 -114 0
115 -115 0
81 -120 0
81 -121 0
120 -120 0
121 -121 0
6 -127 -96 0
-6 127 -96 0
6 127 -97 0
-6 -127 -97 0
25 -127 -102 0
-25 127 -102 0
25 127 -103 0
-25 -127 -103 0
44 -127 -108 0
-44 127 -108 0
44 127 -109 0
-44 -127 -109 0
63 -127 -114 0
-63 127 -114 0
63 127 -115 0
-63 -127 -115 0
82 -127 -120 0
-82 127 -120 0
82 127 -121 0
-82 -127 -121 0
7 -128 -96 0
-7 128 -96 0
7 128 -97 0
-7 -128 -97 0
26 -128 -102 0
-26 128 -102 0
26 128 -103 0
-26 -128 -103 0
45 -128 -108 0
-45 128 -108 0
45 128 -109 0
-45 -128 -109 0
64 -128 -114 0
-64 128 -114 0
64 128 -115 0
-64 -128 -115 0
83 -128 -120 0
-83 128 -120 0
83 128 -121 0
-83 -128 -121 0
-8 -96 0
-8 -97 0
96 -96 0
97 -97 0
-27 -102 0
-27 -103 0
102 -102 0
103 -103 0
-46 -108 0
-46 -109 0
108 -108 0
109 -109 0
-65 -114 0
-65 -115 0
114 -114 0
115 -115 0
-84 -120 0
-84 -121 0
120 -120 0
121 -121 0
-9 -96 0
-9 -97 0
96 -96 0
97 -97 0
-28 -102 0
-28 -103 0
102 -102 0
103 -103 0
-47 -108 0
-47 -109 0
108 -108 0
109 -109 0
-66 -114 0
-66 -115 0
114 -114 0
115 -115 0
-85 -120 0
-85 -121 0
120 -120 0
121 -121 0
10 -96 0
10 -97 0
96 -96 0
97 -97 0
29 -102 0
29 -103 0
102 -102 0
103 -103 0
48 -108 0
48 -109 0
108 -108 0
109 -109 0
67 -114 0
67 -115 0
114 -114 0
115 -115 0
86 -120 0
86 -121 0
120 -120 0
121 -121 0
11 -96 0
11 -97 0
96 -96 0
97 -97 0
30 -102 0
30 -103 0
102 -102 0
103 -103 0
49 -108 0
49 -109 0
108 -108 0
109 -109 0
68 -114 0
68 -115 0
114 -114 0
115 -115 0
87 -120 0
87 -121 0
120 -120 0
121 -121 0
12 -96 0
12 -97 0
96 -96 0
97 -97 0
31 -102 0
31 -103 0
102 -102 0
103 -103 0
50 -108 0
50 -109 0
108 -108 0
109 -109 0
69 -114 0
69 -115 0
114 -114 0
115 -115 0
88 -120 0
88 -121 0
120 -120 0
121 -121 0
13 -129 -96 0
-13 129 -96 0
13 129 -97 0
-13 -129 -97 0
32 -129 -102 0
-32 129 -102 0
32 129 -103 0
-32 -129 -103 0
51 -129 -108 0
-51 129 -108 0
51 129 -109 0
-51 -129 -109 0
70 -129 -114 0
-70 129 -114 0
70 129 -115 0
-70 -129 -115 0
89 -129 -120 0
-89 129 -120 0
89 129 -121 0
-89 -129 -121 0
14 -96 0
14 -97 0
96 -96 0
97 -97 0
33 -102 0
33 -103 0
102 -102 0
103 -103 0
52 -108 0
52 -109 0
108 -108 0
109 -109 0
71 -114 0
71 -115 0
114 -114 0
115 -115 0
90 -120 0
90 -121 0
120 -120 0
121 -121 0
15 -130 -96 0
-15 130 -96 0
15 130 -97 0
-15 -130 -97 0
34 -130 -102 0
-34 130 -102 0
34 130 -103 0
-34 -130 -103 0
53 -130 -108 0
-53 130 -108 0
53 130 -109 0
-53 -130 -109 0
72 -130 -114 0
-72 130 -114 0
72 130 -115 0
-72 -130 -115 0
91 -130 -120 0
-91 130 -120 0
91 130 -121 0
-91 -130 -121 0
16 -96 0
16 -97 0
96 -96 0
97 -97 0
35 -102 0
35 -103 0
102 -102 0
103 -103 0
54 -108 0
54 -109 0
108 -108 0
109 -109 0
73 -114 0
73 -115 0
114 -114 0
115 -115 0
92 -120 0
92 -121 0
120 -120 0
121 -121 0
17 -96 0
17 -97 0
96 -96 0
97 -97 0
36 -102 0
36 -103 0
102 -102 0
103 -103 0
55 -108 0
55 -109 0
108 -108 0
109 -109 0
74 -114 0
74 -115 0
114 -114 0
115 -115 0
93 -120 0
93 -121 0
120 -120 0
121 -121 0
18 -131 -96 0
-18 131 -96 0
18 131 -97 0
-18 -131 -97 0
37 -131 -102 0
-37 131 -102 0
37 131 -103 0
-37 -131 -103 0
56 -131 -108 0
-56 131 -108 0
56 131 -109 0
-56 -131 -109 0
75 -131 -114 0
-75 131 -114 0
75 131 -115 0
-75 -131 -115 0
94 -131 -120 0
-94 131 -120 0
94 131 -121 0
-94 -131 -121 0
19 -132 -96 0
-19 132 -96 0
19 132 -97 0
-19 -132 -97 0
38 -132 -102 0
-38 132 -102 0
38 132 -103 0
-38 -132 -103 0
57 -132 -108 0
-57 132 -108 0
57 132 -109 0
-57 -132 -109 0
76 -132 -114 0
-76 132 -114 0
76 132 -115 0
-76 -132 -115 0
95 -132 -120 0
-95 132 -120 0
95 132 -121 0
-95 -132 -121 0
-183 96 0
183 -96 0
-184 97 0
183 -97 0
-183 -96 0
-184 -97 0
-189 96 183 0
189 -96 0
189 -183 0
-190 97 184 0
190 -97 0
190 -184 0
-189 -102 0
-190 -103 0
-195 102 189 0
195 -102 0
195 -189 0
-196 103 190 0
196 -103 0
196 -190 0
-195 -108 0
-196 -109 0
-201 108 195 0
201 -108 0
201 -195 0
-202 109 196 0
202 -109 0
202 -196 0
-201 -114 0
-202 -115 0
-207 114 201 0
207 -114 0
207 -201 0
-208 115 202 0
208 -115 0
208 -202 0
-207 -120 0
-208 -121 0
207 0
208 0
1 -98 0
1 -99 0
98 -98 0
99 -99 0
20 -104 0
20 -105 0
104 -104 0
105 -105 0
39 -110 0
39 -111 0
110 -110 0
111 -111 0
58 -116 0
58 -117 0
116 -116 0
117 -117 0
77 -122 0
77 -123 0
122 -122 0
123 -123 0
2 -98 0
2 -99 0
98 -98 0
99 -99 0
21 -104 0
21 -105 0
104 -104 0
105 -105 0
40 -110 0
40 -111 0
110 -110 0
111 -111 0
59 -116 0
59 -117 0
116 -116 0
117 -117 0
78 -122 0
78 -123 0
122 -122 0
123 -123 0
3 -133 -98 0
-3 133 -98 0
3 133 -99 0
-3 -133 -99 0
22 -133 -104 0
-22 133 -104 0
22 133 -105 0
-22 -133 -105 0
41 -133 -110 0
-41 133 -110 0
41 133 -111 0
-41 -133 -111 0
60 -133 -116 0
-60 133 -116 0
60 133 -117 0
-60 -133 -117 0
79 -133 -122 0
-79 133 -122 0
79 133 -123 0
-79 -133 -123 0
4 -98 0
4 -99 0
98 -98 0
99 -99 0
23 -104 0
23 -105 0
104 -104 0
105 -105 0
42 -110 0
42 -111 0
110 -110 0
111 -111 0
61 -116 0
61 -117 0
116 -116 0
117 -117 0
80 -122 0
80 -123 0
122 -122 0
123 -123 0
5 -98 0
5 -99 0
98 -98 0
99 -99 0
24 -104 0
24 -105 0
104 -104 0
105 -105 0
43 -110 0
43 -111 0
110 -110 0
111 -111 0
62 -116 0
62 -117 0
116 -116 0
117 -117 0
81 -122 0
81 -123 0
122 -122 0
123 -123 0
6 -134 -98 0
-6 134 -98 0
6 134 -99 0
-6 -134 -99 0
25 -134 -104 0
-25 134 -104 0
25 134 -105 0
-25 -134 -105 0
44 -134 -110 0
-44 134 -110 0
44 134 -111 0
-44 -134 -111 0
63 -134 -116 0
-63 134 -116 0
63 134 -117 0
-63 -134 -117 0
82 -134 -122 0
-82 134 -122 0
82 134 -123 0
-82 -134 -123 0
7 -98 0
7 -99 0
98 -98 0
99 -99 0
26 -104 0
26 -105 0
104 -104 0
105 -105 0
45 -110 0
45 -111 0
110 -110 0
111 -111 0
64 -116 0
64 -117 0
116 -116 0
117 -117 0
83 -122 0
83 -123 0
122 -122 0
123 -123 0
-8 -98 0
-8 -99 0
98 -98 0
99 -99 0
-27 -104 0
-27 -105 0
104 -104 0
105 -105 0
-46 -110 0
-46 -111 0
110 -110 0
111 -111 0
-65 -116 0
-65 -117 0
116 -116 0
117 -117 0
-84 -122 0
-84 -123 0
122 -122 0
123 -123 0
-9 -98 0
-9 -99 0
98 -98 0
99 -99 0
-28 -104 0
-28 -105 0
104 -104 0
105 -105 0
-47 -110 0
-47 -111 0
110 -110 0
111 -111 0
-66 -116 0
-66 -117 0
116 -116 0
117 -117 0
-85 -122 0
-85 -123 0
122 -122 0
123 -123 0
10 -98 0
10 -99 0
98 -98 0
99 -99 0
29 -104 0
29 -105 0
104 -104 0
105 -105 0
48 -110 0
48 -111 0
110 -110 0
111 -111 0
67 -116 0
67 -117 0
116 -116 0
117 -117 0
86 -122 0
86 -123 0
122 -122 0
123 -123 0
11 -98 0
11 -99 0
98 -98 0
99 -99 0
30 -104 0
30 -105 0
104 -104 0
105 -105 0
49 -110 0
49 -111 0
110 -110 0
111 -111 0
68 -116 0
68 -117 0
116 -116 0
117 -117 0
87 -122 0
87 -123 0
122 -122 0
123 -123 0
12 -135 -98 0
-12 135 -98 0
12 135 -99 0
-12 -135 -99 0
31 -135 -104 0
-31 135 -104 0
31 135 -105 0
-31 -135 -105 0
50 -135 -110 0
-50 135 -110 0
50 135 -111 0
-50 -135 -111 0
69 -135 -116 0
-69 135 -116 0
69 135 -117 0
-69 -135 -117 0
88 -135 -122 0
-88 135 -122 0
88 135 -123 0
-88 -135 -123 0
13 -136 -98 0
-13 136 -98 0
13 136 -99 0
-13 -136 -99 0
32 -136 -104 0
-32 136 -104 0
32 136 -105 0
-32 -136 -105 0
51 -136 -110 0
-51 136 -110 0
51 136 -111 0
-51 -136 -111 0
70 -136 -116 0
-70 136 -116 0
70 136 -117 0
-70 -136 -117 0
89 -136 -122 0
-89 136 -122 0
89 136 -123 0
-89 -136 -123 0
14 -98 0
14 -99 0
98 -98 0
99 -99 0
33 -104 0
33 -105 0
104 -104 0
105 -105 0
52 -110 0
52 -111 0
110 -110 0
111 -111 0
71 -116 0
71 -117 0
116 -116 0
117 -117 0
90 -122 0
90 -123 0
122 -122 0
123 -123 0
15 -98 0
15 -99 0
98 -98 0
99 -99 0
34 -104 0
34 -105 0
104 -104 0
105 -105 0
53 -110 0
53 -111 0
110 -110 0
111 -111 0
72 -116 0
72 -117 0
116 -116 0
117 -117 0
91 -122 0
91 -123 0
122 -122 0
123 -123 0
16 -98 0
16 -99 0
98 -98 0
99 -99 0
35 -104 0
35 -105 0
104 -104 0
105 -105 0
54 -110 0
54 -111 0
110 -110 0
111 -111 0
73 -116 0
73 -117 0
116 -116 0
117 -117 0
92 -122 0
92 -123 0
122 -122 0
123 -123 0
17 -137 -98 0
-17 137 -98 0
17 137 -99 0
-17 -137 -99 0
36 -137 -104 0
-36 137 -104 0
36 137 -105 0
-36 -137 -105 0
55 -137 -110 0
-55 137 -110 0
55 137 -111 0
-55 -137 -111 0
74 -137 -116 0
-74 137 -116 0
74 137 -117 0
-74 -137 -117 0
93 -137 -122 0
-93 137 -122 0
93 137 -123 0
-93 -137 -123 0
18 -98 0
18 -99 0
98 -98 0
99 -99 0
37 -104 0
37 -105 0
104 -104 0
105 -105 0
56 -110 0
56 -111 0
110 -110 0
111 -111 0
75 -116 0
75 -117 0
116 -116 0
117 -117 0
94 -122 0
94 -123 0
122 -122 0
123 -123 0
19 -138 -98 0
-19 138 -98 0
19 138 -99 0
-19 -138 -99 0
38 -138 -104 0
-38 138 -104 0
38 138 -105 0
-38 -138 -105 0
57 -138 -110 0
-57 138 -110 0
57 138 -111 0
-57 -138 -111 0
76 -138 -116 0
-76 138 -116 0
76 138 -117 0
-76 -138 -117 0
95 -138 -122 0
-95 138 -122 0
95 138 -123 0
-95 -138 -123 0
-185 98 0
185 -98 0
-186 99 0
185 -99 0
-185 -98 0
-186 -99 0
-191 98 185 0
191 -98 0
191 -185 0
-192 99 186 0
192 -99 0
192 -186 0
-191 -104 0
-192 -105 0
-197 104 191 0
197 -104 0
197 -191 0
-198 105 192 0
198 -105 0
198 -192 0
-197 -110 0
-198 -111 0
-203 110 197 0
203 -110 0
203 -197 0
-204 111 198 0
204 -111 0
204 -198 0
-203 -116 0
-204 -117 0
-209 116 203 0
209 -116 0
209 -203 0
-210 117 204 0
210 -117 0
210 -204 0
-209 -122 0
-210 -123 0
209 0
210 0
1 -100 0
1 -101 0
100 -100 0
101 -101 0
20 -106 0
20 -107 0
106 -106 0
107 -107 0
39 -112 0
39 -113 0
112 -112 0
113 -113 0
58 -118 0
58 -119 0
118 -118 0
119 -119 0
77 -124 0
77 -125 0
124 -124 0
125 -125 0
2 -100 0
2 -101 0
100 -100 0
101 -101 0
21 -106 0
21 -107 0
106 -106 0
107 -107 0
40 -112 0
40 -113 0
112 -112 0
113 -113 0
59 -118 0
59 -119 0
118 -118 0
119 -119 0
78 -124 0
78 -125 0
124 -124 0
125 -125 0
3 -139 -100 0
-3 139 -100 0
3 139 -101 0
-3 -139 -101 0
22 -139 -106 0
-22 139 -106 0
22 139 -107 0
-22 -139 -107 0
41 -139 -112 0
-41 139 -112 0
41 139 -113 0
-41 -139 -113 0
60 -139 -118 0
-60 139 -118 0
60 139 -119 0
-60 -139 -119 0
79 -139 -124 0
-79 139 -124 0
79 139 -125 0
-79 -139 -125 0
4 -100 0
4 -101 0
100 -100 0
101 -101 0
23 -106 0
23 -107 0
106 -106 0
107 -107 0
42 -112 0
42 -113 0
112 -112 0
113 -113 0
61 -118 0
61 -119 0
118 -118 0
119 -119 0
80 -124 0
80 -125 0
124 -124 0
125 -125 0
5 -100 0
5 -101 0
100 -100 0
101 -101 0
24 -106 0
24 -107 0
106 -106 0
107 -107 0
43 -112 0
43 -113 0
112 -112 0
113 -113 0
62 -118 0
62 -119 0
118 -118 0
119 -119 0
81 -124 0
81 -125 0
124 -124 0
125 -125 0
6 -140 -100 0
-6 140 -100 0
6 140 -101 0
-6 -140 -101 0
25 -140 -106 0
-25 140 -106 0
25 140 -107 0
-25 -140 -107 0
44 -140 -112 0
-44 140 -112 0
44 140 -113 0
-44 -140 -113 0
63 -140 -118 0
-63 140 -118 0
63 140 -119 0
-63 -140 -119 0
82 -140 -124 0
-82 140 -124 0
82 140 -125 0
-82 -140 -125 0
7 -141 -100 0
-7 141 -100 0
7 141 -101 0
-7 -141 -101 0
26 -141 -106 0
-26 141 -106 0
26 141 -107 0
-26 -141 -107 0
45 -141 -112 0
-45 141 -112 0
45 141 -113 0
-45 -141 -113 0
64 -141 -118 0
-64 141 -118 0
64 141 -119 0
-64 -141 -119 0
83 -141 -124 0
-83 141 -124 0
83 141 -125 0
-83 -141 -125 0
-8 -100 0
-8 -101 0
100 -100 0
101 -101 0
-27 -106 0
-27 -107 0
106 -106 0
107 -107 0
-46 -112 0
-46 -113 0
112 -112 0
113 -113 0
-65 -118 0
-65 -119 0
118 -118 0
119 -119 0
-84 -124 0
-84 -125 0
124 -124 0
125 -125 0
-9 -100 0
-9 -101 0
100 -100 0
101 -101 0
-28 -106 0
-28 -107 0
106 -106 0
107 -107 0
-47 -112 0
-47 -113 0
112 -112 0
113 -113 0
-66 -118 0
-66 -119 0
118 -118 0
119 -119 0
-85 -124 0
-85 -125 0
124 -124 0
125 -125 0
10 -100 0
10 -101 0
100 -100 0
101 -101 0
29 -106 0
29 -107 0
106 -106 0
107 -107 0
48 -112 0
48 -113 0
112 -112 0
113 -113 0
67 -118 0
67 -119 0
118 -118 0
119 -119 0
86 -124 0
86 -125 0
124 -124 0
125 -125 0
11 -142 -100 0
-11 142 -100 0
11 142 -101 0
-11 -142 -101 0
30 -142 -106 0
-30 142 -106 0
30 142 -107 0
-30 -142 -107 0
49 -142 -112 0
-49 142 -112 0
49 142 -113 0
-49 -142 -113 0
68 -142 -118 0
-68 142 -118 0
68 142 -119 0
-68 -142 -119 0
87 -142 -124 0
-87 142 -124 0
87 142 -125 0
-87 -142 -125 0
12 -100 0
12 -101 0
100 -100 0
101 -101 0
31 -106 0
31 -107 0
106 -106 0
107 -107 0
50 -112 0
50 -113 0
112 -112 0
113 -113 0
69 -118 0
69 -119 0
118 -118 0
119 -119 0
88 -124 0
88 -125 0
124 -124 0
125 -125 0
13 -143 -100 0
-13 143 -100 0
13 143 -101 0
-13 -143 -101 0
32 -143 -106 0
-32 143 -106 0
32 143 -107 0
-32 -143 -107 0
51 -143 -112 0
-51 143 -112 0
51 143 -113 0
-51 -143 -113 0
70 -143 -118 0
-70 143 -118 0
70 143 -119 0
-70 -143 -119 0
89 -143 -124 0
-89 143 -124 0
89 143 -125 0
-89 -143 -125 0
14 -100 0
14 -101 0
100 -100 0
101 -101 0
33 -106 0
33 -107 0
106 -106 0
107 -107 0
52 -112 0
52 -113 0
112 -112 0
113 -113 0
71 -118 0
71 -119 0
118 -118 0
119 -119 0
90 -124 0
90 -125 0
124 -124 0
125 -125 0
15 -144 -100 0
-15 144 -100 0
15 144 -101 0
-15 -144 -101 0
34 -144 -106 0
-34 144 -106 0
34 144 -107 0
-34 -144 -107 0
53 -144 -112 0
-53 144 -112 0
53 144 -113 0
-53 -144 -113 0
72 -144 -118 0
-72 144 -118 0
72 144 -119 0
-72 -144 -119 0
91 -144 -124 0
-91 144 -124 0
91 144 -125 0
-91 -144 -125 0
16 -145 -100 0
-16 145 -100 0
16 145 -101 0
-16 -145 -101 0
35 -145 -106 0
-35 145 -106 0
35 145 -107 0
-35 -145 -107 0
54 -145 -112 0
-54 145 -112 0
54 145 -113 0
-54 -145 -113 0
73 -145 -118 0
-73 145 -118 0
73 145 -119 0
-73 -145 -119 0
92 -145 -124 0
-92 145 -124 0
92 145 -125 0
-92 -145 -125 0
17 -100 0
17 -101 0
100 -100 0
101 -101 0
36 -106 0
36 -107 0
106 -106 0
107 -107 0
55 -112 0
55 -113 0
112 -112 0
113 -113 0
74 -118 0
74 -119 0
118 -118 0
119 -119 0
93 -124 0
93 -125 0
124 -124 0
125 -125 0
18 -146 -100 0
-18 146 -100 0
18 146 -101 0
-18 -146 -101 0
37 -146 -106 0
-37 146 -106 0
37 146 -107 0
-37 -146 -107 0
56 -146 -112 0
-56 146 -112 0
56 146 -113 0
-56 -146 -113 0
75 -146 -118 0
-75 146 -118 0
75 146 -119 0
-75 -146 -119 0
94 -146 -124 0
-94 146 -124 0
94 146 -125 0
-94 -146 -125 0
19 -147 -100 0
-19 147 -100 0
19 147 -101 0
-19 -147 -101 0
38 -147 -106 0
-38 147 -106 0
38 147 -107 0
-38 -147 -107 0
57 -147 -112 0
-57 147 -112 0
57 147 -113 0
-57 -147 -113 0
76 -147 -118 0
-76 147 -118 0
76 147 -119 0
-76 -147 -119 0
95 -147 -124 0
-95 147 -124 0
95 147 -125 0
-95 -147 -125 0
-187 100 0
187 -100 0
-188 101 0
187 -101 0
-187 -100 0
-188 -101 0
-193 100 187 0
193 -100 0
193 -187 0
-194 101 188 0
194 -101 0
194 -188 0
-193 -106 0
-194 -107 0
-199 106 193 0
199 -106 0
199 -193 0
-200 107 194 0
200 -107 0
200 -194 0
-199 -112 0
-200 -113 0
-205 112 199 0
205 -112 0
205 -199 0
-206 113 200 0
206 -113 0
206 -200 0
-205 -118 0
-206 -119 0
-211 118 205 0
211 -118 0
211 -205 0
-212 119 206 0
212 -119 0
212 -206 0
-211 -124 0
-212 -125 0
211 0
212 0
